%nproc=32
%mem=100GB
#p, b3lyp/6-31g*
charge Test Pop=MK   iop(6/33=2) iop(6/42=6) nosym

hello,0001DNA.gjf

          -1           1
H             -0.567000   -8.229000  -17.653000
O              0.294000   -7.907000  -17.378000
C              1.290000   -7.636000  -18.382000
H              0.919000   -6.873000  -19.066999
H              1.505000   -8.549000  -18.937000
C              2.568000   -7.138000  -17.725000
H              3.405000   -7.271000  -18.410999
O              2.472000   -5.693000  -17.542000
C              2.242000   -5.390000  -16.174000
H              3.056000   -4.770000  -15.797000
N              1.052000   -4.497000  -16.091999
C             -0.288000   -4.825000  -16.118000
H             -0.589000   -5.859000  -16.209000
N             -1.091000   -3.794000  -16.027000
C             -0.230000   -2.707000  -15.934000
C             -0.508000   -1.320000  -15.813000
O             -1.600000   -0.755000  -15.762000
N              0.670000   -0.567000  -15.749000
H              0.577000    0.425000  -15.664000
C              1.949000   -1.083000  -15.794000
N              2.946000   -0.191000  -15.719000
H              2.859000    0.812000  -15.645000
H              3.885000   -0.560000  -15.760000
N              2.208000   -2.383000  -15.906000
C              1.073000   -3.130000  -15.969000
C              2.851000   -7.682000  -16.323999
H              2.426000   -8.681000  -16.228001
C              2.083000   -6.713000  -15.422000
H              1.336000   -7.263000  -14.850000
H              2.777000   -6.224000  -14.738000
O              4.207000   -7.671000  -15.901000
P              4.236000   -7.538000  -14.421000
O              5.280000   -8.548000  -14.704000
O              3.158000   -7.922000  -13.483000
O              5.026000   -6.233000  -13.939000
C              5.715000   -5.432000  -14.918000
H              5.001000   -5.063000  -15.654000
H              6.470000   -6.039000  -15.417000
H              6.199656   -4.585286  -14.431910

    7.178000   -3.863000  -14.886000    0.037768
    5.432000   -3.156000  -14.135000   -0.443237
    4.983000   -3.029000  -12.793000   -0.002680
    5.234000   -2.037000  -12.418000    0.248125
    3.454000   -3.034000  -12.761000    0.051964
    2.709000   -4.183000  -12.804000   -0.239414
    3.200000   -5.143000  -12.863000    0.213414
    1.372000   -4.148000  -12.719000   -0.057428
    0.548000   -5.400000  -12.765000   -0.174228
    0.830000   -6.052000  -11.938000    0.079942
   -0.508000   -5.144000  -12.681000    0.090319
    0.722000   -5.916000  -13.709000   -0.047596
    0.675000   -2.895000  -12.580000    0.615526
   -0.545000   -2.766000  -12.496000   -0.600189
    1.503000   -1.792000  -12.546000   -0.586799
    1.020000   -0.820000  -12.442000    0.380751
    2.880000   -1.796000  -12.631000    0.609453
    3.528000   -0.763000  -12.591000   -0.555418
    6.859000   -4.487000  -12.803000   -0.129592
    7.119000   -5.538000  -12.673000    0.158637
    5.609000   -4.165000  -11.982000   -0.298404
    5.313000   -5.044000  -11.410000    0.188251
    5.825000   -3.344000  -11.298000    0.185516
    7.905000   -3.650000  -12.332000    0.113564
    7.685000   -3.679000  -11.076000    0.402310
    9.099000   -3.919000  -11.439000   -0.886338
    7.077000   -4.590000  -10.080000   -0.598643
    7.617000   -2.147000  -10.618000   -0.174311
    7.667000   -1.116000  -11.622000   -0.269421
    6.828000   -1.233000  -12.307000    0.094239
    8.602000   -1.194000  -12.177000    0.120539
    7.589000    0.253000  -10.965000    0.478847
    7.974000    1.008000  -11.651000    0.035720
    6.185000    0.608000  -10.782000   -0.473646
    5.826000    0.483000   -9.414000    0.173746
    5.488000    1.449000   -9.037000    0.214727
    4.609000   -0.373000   -9.332000    0.018270
    4.507000   -1.749000   -9.358000    0.281080
    5.397000   -2.354000   -9.449000    0.039161
    3.278000   -2.194000   -9.267000   -0.692336
    2.511000   -1.039000   -9.174000    0.150015
    1.105000   -0.875000   -9.053000    0.565402
    0.230000   -1.738000   -9.002000   -0.624826
    0.753000    0.478000   -8.989000   -0.667756
   -0.219000    0.697000   -8.904000    0.422891
    1.639000    1.535000   -9.034000    0.822654
    1.099000    2.759000   -8.959000   -0.942282
    0.118000    2.987000   -8.885000    0.464541
    1.740000    3.538000   -9.000000    0.445819
    2.956000    1.380000   -9.146000   -0.649387
    3.315000    0.070000   -9.209000    0.184212
    8.193000    0.354000   -9.564000   -0.114759
    9.013000   -0.358000   -9.468000    0.170464
    7.035000   -0.077000   -8.662000   -0.519565
    7.327000   -0.957000   -8.090000    0.256246
    6.784000    0.734000   -7.978000    0.208039
    8.602000    1.647000   -9.141000   -0.159896
    8.485000    1.716000   -7.661000    0.685617
    9.768000    2.397000   -7.944000   -0.867143
    8.517000    0.572000   -6.723000   -0.644568
    7.488000    2.870000   -7.179000   -0.290725
    6.939000    3.773000   -8.158000   -0.053842
    6.367000    3.208000   -8.894000    0.072491
    7.750000    4.304000   -8.657000    0.090494
    6.025000    4.781000   -7.480000    0.336053
    5.899000    5.650000   -8.126000    0.042458
    4.686000    4.207000   -7.375000   -0.436731
    4.428000    3.820000   -6.033000   -0.005720
    3.561000    4.365000   -5.658000    0.249154
    3.959000    2.364000   -6.001000    0.064175
    4.822000    1.301000   -6.044000   -0.250620
    5.887000    1.471000   -6.103000    0.216779
    4.376000    0.040000   -5.959000   -0.053596
    5.312000   -1.131000   -6.005000   -0.166012
    6.019000   -1.064000   -5.178000    0.074803
    4.742000   -2.056000   -5.921000    0.090325
    5.856000   -1.125000   -6.949000   -0.051954
    2.969000   -0.236000   -5.820000    0.614626
    2.469000   -1.356000   -5.736000   -0.600808
    2.175000    0.892000   -5.786000   -0.586515
    1.102000    0.734000   -5.682000    0.380370
    2.605000    2.201000   -5.871000    0.607689
    1.823000    3.136000   -5.831000   -0.558459
    6.394000    5.154000   -6.043000   -0.119845
    7.473000    5.076000   -5.913000    0.163369
    5.701000    4.065000   -5.222000   -0.318503
    6.446000    3.511000   -4.650000    0.192150
    4.987000    4.523000   -4.538000    0.189601
    5.921000    6.407000   -5.572000    0.111947
    5.880000    6.189000   -4.316000    0.432461
    6.546000    7.460000   -4.679000   -0.890194
    6.559000    5.329000   -3.320000   -0.606936
    4.403000    6.598000   -3.858000   -0.188753
    3.437000    6.964000   -4.862000   -0.247950
    3.290000    6.129000   -5.547000    0.086041
    3.800000    7.829000   -5.417000    0.117220
    2.111000    7.312000   -4.205000    0.449433
    1.513000    7.912000   -4.891000    0.030628
    1.339000    6.087000   -4.022000   -0.444854
    1.347000    5.706000   -2.654000    0.040383
    0.325000    5.683000   -2.277000    0.262527
    1.785000    4.285000   -2.572000    0.079761
    3.063000    3.763000   -2.598000    0.253900
    3.914000    4.421000   -2.689000    0.051559
    3.106000    2.457000   -2.507000   -0.693469
    1.771000    2.083000   -2.414000    0.133721
    1.181000    0.797000   -2.293000    0.575625
    1.731000   -0.301000   -2.242000   -0.625782
   -0.216000    0.880000   -2.229000   -0.662396
   -0.723000    0.023000   -2.144000    0.415907
   -0.947000    2.050000   -2.274000    0.806638
   -2.278000    1.915000   -2.199000   -0.938738
   -2.798000    1.052000   -2.125000    0.458327
   -2.821000    2.765000   -2.240000    0.447648
   -0.392000    3.254000   -2.386000   -0.635681
    0.965000    3.191000   -2.449000    0.199418
    2.202000    7.919000   -2.804000   -0.185243
    3.133000    8.477000   -2.708000    0.191172
    2.254000    6.683000   -1.902000   -0.526962
    3.181000    6.689000   -1.330000    0.264405
    1.405000    6.696000   -1.218000    0.272144
    1.099000    8.707000   -2.381000   -0.012774
    1.126000    8.470000   -0.936000    0.453330
    0.917000    9.890000   -1.299000   -0.848768
    2.180000    8.174000    0.060000   -0.570055
   -0.310000    7.933000   -0.478000   -0.168329
   -1.306000    7.662000   -1.482000   -0.241566
   -0.935000    6.899000   -2.167000    0.098657
   -1.521000    8.575000   -2.037000    0.138856
   -2.584000    7.164000   -0.825000    0.397707
   -3.421000    7.297000   -1.511000    0.047377
   -2.488000    5.719000   -0.642000   -0.449460
   -2.258000    5.416000    0.726000    0.101012
   -3.072000    4.796000    1.103000    0.248226
   -1.068000    4.523000    0.808000    0.059679
    0.272000    4.851000    0.782000    0.262444
    0.573000    5.885000    0.691000    0.021273
    1.075000    3.820000    0.873000   -0.708177
    0.214000    2.733000    0.966000    0.160515
    0.492000    1.346000    1.087000    0.562324
    1.584000    0.781000    1.138000   -0.622246
   -0.686000    0.593000    1.151000   -0.652820
   -0.593000   -0.399000    1.236000    0.416516
   -1.965000    1.109000    1.106000    0.796422
   -2.962000    0.217000    1.181000   -0.932286
   -2.875000   -0.786000    1.255000    0.457528
   -3.901000    0.586000    1.140000    0.448292
   -2.224000    2.409000    0.994000   -0.619422
   -1.089000    3.156000    0.931000    0.188446
   -2.867000    7.708000    0.576000   -0.149621
   -2.442000    8.707000    0.672000    0.178696
   -2.099000    6.739000    1.478000   -0.513072
   -1.352000    7.289000    2.050000    0.264068
   -2.793000    6.250000    2.162000    0.248753
   -4.223000    7.697000    0.999000   -0.022493
   -4.062000    7.522000    2.444000    0.478282
   -5.065000    8.547000    2.081000   -0.850127
   -3.034000    7.901000    3.440000   -0.571923
   -4.907000    6.242000    2.902000   -0.167712
   -5.554000    5.438000    1.898000   -0.259704
   -4.806000    5.039000    1.213000    0.107312
   -6.265000    6.050000    1.343000    0.140269
   -6.295000    4.284000    2.555000    0.412579
   -7.051000    3.900000    1.869000    0.057908
   -5.368000    3.171000    2.738000   -0.475895
   -5.004000    3.061000    4.106000    0.237043
   -5.298000    2.082000    4.483000    0.192784
   -3.516000    3.039000    4.188000    0.003660
   -2.625000    4.092000    4.162000    0.281840
   -2.989000    5.105000    4.071000    0.019631
   -1.370000    3.730000    4.253000   -0.702675
   -1.427000    2.344000    4.346000    0.159056
   -0.387000    1.386000    4.467000    0.562121
    0.828000    1.570000    4.518000   -0.621155
   -0.897000    0.084000    4.531000   -0.661732
   -0.239000   -0.664000    4.616000    0.424359
   -2.235000   -0.250000    4.486000    0.807586
   -2.518000   -1.558000    4.561000   -0.934199
   -1.858000   -2.319000    4.635000    0.463871
   -3.495000   -1.811000    4.520000    0.445754
   -3.209000    0.649000    4.374000   -0.633400
   -2.730000    1.920000    4.311000    0.185060
   -6.844000    4.558000    3.956000   -0.071708
   -7.088000    5.616000    4.052000    0.162356
   -5.653000    4.225000    4.858000   -0.531716
   -5.372000    5.109000    5.430000    0.258519
   -5.927000    3.422000    5.542000    0.203145
   -7.934000    3.752000    4.379000   -0.165340
   -7.880000    3.627000    5.859000    0.690845
   -9.318000    3.831000    5.576000   -0.864303
   -7.234000    4.572000    6.797000   -0.641405
   -7.751000    2.107000    6.341000   -0.291110
   -7.839000    1.055000    5.362000   -0.052947
   -7.044000    1.175000    4.626000    0.069236
   -8.806000    1.102000    4.863000    0.090424
   -7.691000   -0.298000    6.040000    0.346970
   -8.100000   -1.075000    5.394000    0.040106
   -6.271000   -0.621000    6.145000   -0.436539
   -5.834000   -0.460000    7.487000   -0.021082
   -5.453000   -1.410000    7.862000    0.247702
   -4.599000    0.443000    7.519000    0.069425
   -4.672000    1.810000    7.476000   -0.249604
   -5.634000    2.298000    7.417000    0.212312
   -3.570000    2.568000    7.561000   -0.053307
   -3.640000    4.066000    7.515000   -0.168594
   -4.251000    4.427000    8.342000    0.076654
   -2.635000    4.479000    7.599000    0.092543
   -4.084000    4.381000    6.571000   -0.053855
   -2.270000    1.964000    7.700000    0.616750
   -1.207000    2.577000    7.784000   -0.598629
   -2.291000    0.585000    7.734000   -0.589922
   -1.329000    0.082000    7.838000    0.381936
   -3.408000   -0.221000    7.649000    0.607479
   -3.325000   -1.437000    7.689000   -0.555269
   -8.209000   -0.383000    7.477000   -0.125289
   -9.036000    0.315000    7.607000    0.162139
   -7.008000    0.091000    8.298000   -0.301217
   -7.285000    0.977000    8.870000    0.190983
   -6.700000   -0.700000    8.982000    0.187667
   -8.563000   -1.675000    7.948000    0.109233
   -8.402000   -1.522000    9.204000    0.409775
   -9.687000   -2.159000    8.841000   -0.886691
   -8.446000   -0.428000   10.200000   -0.602394
   -7.447000   -2.722000    9.662000   -0.183525
   -6.881000   -3.585000    8.658000   -0.251315
   -6.271000   -2.997000    7.973000    0.091517
   -7.683000   -4.072000    8.103000    0.118678
   -6.013000   -4.646000    9.315000    0.443937
   -5.881000   -5.484000    8.629000    0.043288
   -4.668000   -4.109000    9.498000   -0.464810
   -4.451000   -3.796000   10.866000    0.169776
   -3.610000   -4.379000   11.243000    0.210208
   -3.970000   -2.389000   10.948000    0.028164
   -4.696000   -1.216000   10.922000    0.271186
   -5.772000   -1.248000   10.831000    0.046856
   -3.964000   -0.133000   11.013000   -0.689619
   -2.664000   -0.617000   11.106000    0.142556
   -1.431000    0.077000   11.227000    0.564271
   -1.230000    1.289000   11.278000   -0.623457
   -0.350000   -0.811000   11.291000   -0.663654
    0.565000   -0.416000   11.376000    0.421238
   -0.446000   -2.187000   11.246000    0.820039
    0.710000   -2.859000   11.321000   -0.941038
    1.638000   -2.467000   11.395000    0.463588
    0.650000   -3.867000   11.280000    0.445613
   -1.602000   -2.835000   11.134000   -0.648140
   -2.663000   -1.986000   11.071000    0.187440
   -6.442000   -5.084000   10.716000   -0.096154
   -7.524000   -4.989000   10.812000    0.168260
   -5.758000   -4.054000   11.618000   -0.527569
   -6.512000   -3.513000   12.190000    0.256550
   -5.079000   -4.563000   12.302000    0.210339
   -6.013000   -6.370000   11.139000   -0.162269
   -5.878000   -6.357000   12.619000    0.698514
   -6.516000   -7.662000   12.336000   -0.867506
   -6.576000   -5.450000   13.557000   -0.645747
   -4.393000   -6.704000   13.101000   -0.293854
   -3.418000   -7.113000   12.122000   -0.042247
   -3.288000   -6.319000   11.386000    0.068405
   -3.762000   -8.018000   11.623000    0.089708
   -2.086000   -7.390000   12.800000    0.337380
   -1.474000   -8.019000   12.154000    0.040537
   -1.341000   -6.139000   12.905000   -0.437498
   -1.359000   -5.674000   14.247000   -0.003390
   -0.338000   -5.606000   14.622000    0.238394
   -1.836000   -4.221000   14.279000    0.070650
   -3.159000   -3.868000   14.236000   -0.234205
   -3.920000   -4.632000   14.177000    0.208999
   -3.539000   -2.585000   14.321000   -0.063184
   -4.984000   -2.189000   14.275000   -0.169615
   -5.517000   -2.658000   15.102000    0.078132
   -5.067000   -1.105000   14.359000    0.092949
   -5.421000   -2.514000   13.331000   -0.049683
   -2.563000   -1.535000   14.460000    0.619805
   -2.817000   -0.335000   14.544000   -0.596530
   -1.257000   -1.981000   14.494000   -0.585977
   -0.482000   -1.222000   14.598000    0.381471
   -0.836000   -3.293000   14.409000    0.598071
    0.346000   -3.590000   14.449000   -0.551175
   -2.166000   -7.909000   14.237000   -0.117534
   -3.085000   -8.480000   14.367000    0.162031
   -2.245000   -6.620000   15.058000   -0.340154
   -3.173000   -6.610000   15.630000    0.198787
   -1.398000   -6.572000   15.742000    0.199910
   -1.047000   -8.645000   14.708000    0.110243
   -1.142000   -8.444000   15.964000    0.381284
   -0.933000   -9.864000   15.601000   -0.875339
   -2.196000   -8.148000   16.959999   -0.594299
    0.294000   -7.907000   16.422001   -0.152544
    1.290000   -7.636000   15.418000   -0.277518
    0.919000   -6.873000   14.733000    0.103479
    1.505000   -8.549000   14.863000    0.121293
    2.568000   -7.138000   16.075001    0.394666
    3.405000   -7.271000   15.389000    0.060540
    2.472000   -5.693000   16.257999   -0.491317
    2.242000   -5.390000   17.625999    0.428129
    3.056000   -4.770000   18.003000    0.091470
    1.052000   -4.497000   17.708000   -0.165912
   -0.288000   -4.825000   17.681999    0.285244
   -0.589000   -5.859000   17.591000    0.025218
   -1.091000   -3.794000   17.773001   -0.666637
   -0.230000   -2.707000   17.865999    0.101512
   -0.508000   -1.320000   17.987000    0.567033
   -1.600000   -0.755000   18.038000   -0.604664
    0.670000   -0.567000   18.051001   -0.664928
    0.577000    0.425000   18.136000    0.429734
    1.949000   -1.083000   18.006001    0.838679
    2.946000   -0.191000   18.080999   -0.948263
    2.859000    0.812000   18.155001    0.472718
    3.885000   -0.560000   18.040001    0.444878
    2.208000   -2.383000   17.893999   -0.722440
    1.073000   -3.130000   17.830999    0.320575
    2.851000   -7.682000   17.476000    0.273848
    2.426000   -8.681000   17.572001    0.041516
    2.083000   -6.713000   18.378000   -0.469342
    1.336000   -7.263000   18.950001    0.173543
    2.777000   -6.224000   19.062000    0.115078
    4.207000   -7.671000   17.899000   -0.769515
    4.359000   -8.017000   18.781000    0.505287
     1.290473104    -7.967662811   -20.260951996    -0.000092609
     1.052764416    -7.732035160   -20.272756577    -0.000121091
     1.290479779    -7.732786179   -20.287544250    -0.000157303
     1.528172851    -7.732028961   -20.272638321    -0.000115414
     1.053117156    -7.494534016   -20.269945145    -0.000162350
     1.290479064    -7.493431091   -20.284666061    -0.000179840
     1.527818680    -7.494543076   -20.269828796    -0.000121117
     1.289431095    -7.256395817   -20.252466202    -0.000150523
     0.801717639    -6.977048397   -20.256713867    -0.000157335
     1.029950738    -6.977100849   -20.257316589    -0.000190456
     0.801903784    -6.749068260   -20.254825592    -0.000144557
     1.029774427    -6.749005795   -20.255424500    -0.000153175
     1.303914309    -8.959609032   -20.046487808    -0.000123532
     1.538744569    -8.965333939   -20.061956406    -0.000150414
     1.769793749    -8.955231667   -20.034662247    -0.000113486
     1.069586277    -8.723572731   -20.041725159    -0.000139965
     1.293563485    -8.734314919   -20.103599548    -0.000230905
     1.540534258    -8.737177849   -20.121620178    -0.000263264
     1.783112645    -8.732134819   -20.089872360    -0.000196052
     0.812334299    -8.450981140   -20.040306091    -0.000116110
     1.046242356    -8.479048729   -20.092660904    -0.000223030
     1.289446592    -8.488860130   -20.132389069    -0.000309766
     1.541097999    -8.488424301   -20.139883041    -0.000322042
     1.785982132    -8.486752510   -20.103645325    -0.000276027
     2.001002789    -8.486273766   -20.029262543    -0.000152142
     0.570040405    -8.213312149   -20.051979065    -0.000085276
     0.789993107    -8.237609863   -20.122264862    -0.000181751
     1.033550978    -8.253740311   -20.168924332    -0.000264174
     1.291156292    -8.257028580   -20.186746597    -0.000411561
     1.547622681    -8.249531746   -20.174673080    -0.000347977
     1.792648196    -8.238616943   -20.128509521    -0.000305173
     2.011739731    -8.222555161   -20.054063797    -0.000190749
     0.547290146    -7.983819962   -20.104749680    -0.000132891
     0.772764325    -7.999463081   -20.182229996    -0.000226021
     1.024207830    -8.009920120   -20.234025955    -0.000498755
     1.556838036    -8.009891510   -20.233880997    -0.000543910
     1.808196068    -7.999409199   -20.181964874    -0.000304373
     2.033551455    -7.983749390   -20.104400635    -0.000209406
     0.340219170    -7.731975555   -20.034019470    -0.000090413
     0.535705745    -7.737645626   -20.131620407    -0.000197618
     0.763935685    -7.742371082   -20.212957382    -0.000399540
     1.817038417    -7.742354870   -20.212678909    -0.000416059
     2.045144081    -7.737624645   -20.131256104    -0.000235057
     2.240496159    -7.731951714   -20.033609390    -0.000122168
     0.340052754    -7.486846447   -20.032962799    -0.000139816
     0.536062598    -7.486918926   -20.130603790    -0.000270743
     0.764611363    -7.481989384   -20.210071564    -0.000526218
     1.816077828    -7.479384899   -20.209341049    -0.000417117
     2.043887377    -7.486327171   -20.128343582    -0.000232752
     2.239085436    -7.494656563   -20.031158447    -0.000120308
     0.327441156    -7.222458363   -20.055242538    -0.000183259
     0.529863834    -7.241928101   -20.148509979    -0.000356160
     0.772308886    -7.245738506   -20.216352463    -0.000783456
     1.555353403    -7.213341713   -20.223579407    -0.000633246
     1.805471063    -7.225065231   -20.172498703    -0.000281936
     2.029968739    -7.242599010   -20.096101761    -0.000184914
     0.306834161    -6.984036922   -20.093120575    -0.000217675
     0.515345991    -6.994575977   -20.190513611    -0.000531051
     1.310299039    -6.977123260   -20.213861465    -0.000804219
     1.549977303    -6.976075172   -20.159944534    -0.000354458
     1.786855221    -6.991726398   -20.107835770    -0.000228580
     2.005367041    -7.017381668   -20.039113998    -0.000123364
     0.307940274    -6.740773201   -20.091266632    -0.000199070
     0.516219914    -6.728275299   -20.188079834    -0.000488655
     1.315150857    -6.727975368   -20.190401077    -0.000556422
     1.533221841    -6.741487503   -20.102821350    -0.000282060
     0.332543790    -6.512820721   -20.050025940    -0.000124077
     0.535421729    -6.481820107   -20.134635925    -0.000277097
     0.782458603    -6.462841988   -20.186431885    -0.000478393
     1.048193336    -6.462560177   -20.187198639    -0.000497484
     1.296192288    -6.481085777   -20.136638641    -0.000311538
     1.500465631    -6.511864185   -20.052635193    -0.000158176
     0.566219926    -6.280216217   -20.048912048    -0.000121492
     0.794372737    -6.256164074   -20.088752747    -0.000195033
     1.036906838    -6.255811214   -20.089338303    -0.000199983
     1.265806437    -6.279275417   -20.050470352    -0.000130881
     1.058798194    -9.209897995   -19.833726883    -0.000106606
     1.286737442    -9.249070168   -19.886875153    -0.000284089
     1.541719079    -9.260611534   -19.902536392    -0.000330905
     1.791871190    -9.240302086   -19.874979019    -0.000269628
     2.008088589    -9.195357323   -19.813997269    -0.000085984
     0.821541488    -8.967970848   -19.829942703    -0.000113134
     1.012135863    -9.013746262   -19.927503586    -0.000459119
     2.058057785    -9.001359940   -19.901103973    -0.000313469
     0.579330981    -8.693481445   -19.806921005    -0.000081956
     0.777197778    -8.747117996   -19.893184662    -0.000454136
     2.093200922    -8.755500793   -19.962366104    -0.000626277
     2.268602848    -8.731758118   -19.844474792    -0.000154259
     0.329101682    -8.454133987   -19.813013077    -0.000050121
     0.525781155    -8.503712654   -19.899730682    -0.000337325
     2.279820442    -8.485839844   -19.857448578    -0.000371164
     0.281507641    -8.242406845   -19.883892059    -0.000168661
     2.302222490    -8.241734505   -19.886423111    -0.000459544
     0.082803994    -7.975115776   -19.820104599    -0.000048713
     0.246172011    -8.002566338   -19.936513901    -0.000327455
     2.334560394    -8.002456665   -19.936048508    -0.000614684
     2.497775793    -7.975007057   -19.819643021    -0.000174356
     0.064926095    -7.735024929   -19.841402054    -0.000167399
     2.517732382    -7.734940529   -19.840511322    -0.000338155
     0.066226564    -7.488966942   -19.838983536    -0.000254928
     2.520430565    -7.489430428   -19.840133667    -0.000341325
     0.063850053    -7.233338833   -19.847278595    -0.000337842
     2.328975677    -7.221655846   -19.927740097    -0.000562248
     2.506090879    -7.250138283   -19.813819885    -0.000182989
     0.037547708    -6.987382889   -19.873199463    -0.000380890
     2.290862560    -6.986764908   -19.871036530    -0.000335238
     0.039237585    -6.736804008   -19.871654510    -0.000347718
     1.825706244    -6.691811085   -19.954423904    -0.000775157
     2.046064377    -6.730334759   -19.881532669    -0.000337918
     0.076682702    -6.502897263   -19.837406158    -0.000131717
     1.783278823    -6.494550228   -19.859083176    -0.000357382
     0.291614830    -6.238127232   -19.869073868    -0.000385609
     1.541285276    -6.236196518   -19.871513367    -0.000461266
     0.556955457    -6.025517464   -19.835567474    -0.000128686
     0.790817142    -5.989181995   -19.868518829    -0.000321586
     1.040274739    -5.988646984   -19.869005203    -0.000331428
     1.274944186    -6.024100780   -19.836853027    -0.000138228
     1.059119582    -9.449400902   -19.593101501    -0.000102423
     1.286913872    -9.502684593   -19.631927490    -0.000264888
     1.541688323    -9.518382072   -19.643365860    -0.000311229
     1.791645169    -9.490759850   -19.623239517    -0.000256220
     2.007741928    -9.429618835   -19.578685760    -0.000089082
     0.793219686    -9.234381676   -19.617897034    -0.000295298
     2.260283947    -9.210533142   -19.594205856    -0.000095955
     0.565388024    -8.965239525   -19.596595764    -0.000263423
     2.339445829    -9.014291763   -19.663087845    -0.000491990
     0.304559320    -8.721512794   -19.603078842    -0.000172827
     2.496035576    -8.727688789   -19.590078354    -0.000155039
     0.070109174    -8.466834068   -19.591150284    -0.000070674
     2.529812098    -8.484240532   -19.610511780    -0.000428653
     0.007648889    -8.252800941   -19.653060913    -0.000152081
     2.572914124    -8.252577782   -19.652601242    -0.000711733
    -0.157711416    -7.974876881   -19.577724457    -0.000048786
     2.781489849    -7.981007099   -19.605876923    -0.000419775
    -0.179120421    -7.734953403   -19.595407486    -0.000101423
     2.809639692    -7.744549751   -19.661680222    -0.000634215
     3.281744480    -7.710148811   -19.536432266    -0.000324101
     3.529767752    -7.700087547   -19.524694443    -0.000245513
    -0.176801667    -7.490248680   -19.593492508    -0.000148780
     2.816022158    -7.486641407   -19.688936234    -0.000693530
     3.041058779    -7.487302303   -19.623086929    -0.000495659
     3.289313555    -7.482056141   -19.592950821    -0.000487628
     3.536545038    -7.480693817   -19.585189819    -0.000410436
     3.764247417    -7.472289562   -19.538129807    -0.000235515
    -0.155645996    -7.240622997   -19.584251404    -0.000159506
     2.806957245    -7.227047920   -19.673034668    -0.000630923
     3.040607929    -7.236901760   -19.621265411    -0.000518930
     3.290924311    -7.237903595   -19.606924057    -0.000517814
     3.538548470    -7.237489223   -19.603073120    -0.000448806
     3.769280195    -7.238871098   -19.553920746    -0.000279851
    -0.153994009    -6.983529091   -19.593795776    -0.000180161
     2.575829506    -6.964862347   -19.701461792    -0.000705024
     2.792448521    -6.985914707   -19.627170563    -0.000395314
     3.035987854    -6.993433952   -19.579498291    -0.000390261
     3.292982340    -6.997843266   -19.574670792    -0.000370659
     3.535105467    -6.998307705   -19.572340012    -0.000320173
     3.760620117    -7.009012699   -19.526748657    -0.000203230
    -0.152134761    -6.743912697   -19.592363358    -0.000150552
     2.545511484    -6.730882168   -19.636320114    -0.000340687
     2.783309460    -6.746001244   -19.581842422    -0.000211241
     3.024160862    -6.753801823   -19.538419724    -0.000188504
    -0.032654583    -6.454855919   -19.666589737    -0.000571130
     2.062315226    -6.449935913   -19.664066315    -0.000524569
     2.284852982    -6.496505737   -19.604829788    -0.000202806
     2.525571108    -6.516643047   -19.551321030    -0.000060723
     2.778530121    -6.522023678   -19.518520355    -0.000058320
     0.053219356    -6.246207237   -19.612485886    -0.000149493
     1.804888129    -6.223116398   -19.641685486    -0.000442075
     0.300381869    -6.000929356   -19.611797333    -0.000143969
     0.510229349    -5.916139603   -19.664766312    -0.000574712
     1.318651080    -5.915231705   -19.672225952    -0.000600350
     1.544162869    -5.980479240   -19.627349854    -0.000229763
     0.797600985    -5.799770355   -19.589914322    -0.000142925
     1.033849359    -5.799188137   -19.590198517    -0.000144179
     1.304327369    -9.660420418   -19.342556000    -0.000107897
     1.538673401    -9.675850868   -19.348186493    -0.000134129
     1.769261360    -9.648620605   -19.338249207    -0.000102653
     0.822516859    -9.444968224   -19.351074219    -0.000094860
     1.013000846    -9.542531967   -19.396163940    -0.000386211
     2.057137966    -9.516141891   -19.383966446    -0.000283996
     0.580511808    -9.201464653   -19.348514557    -0.000165556
     2.338711023    -9.279225349   -19.397104263    -0.000467323
     0.311877549    -8.958105087   -19.349357605    -0.000113896
     2.536203623    -8.985181808   -19.368700027    -0.000191717
     0.058979411    -8.720716476   -19.355880737    -0.000066340
     2.603193760    -8.762355804   -19.409074783    -0.000701335
    -0.151022255    -8.451189041   -19.331092834    -0.000015682
     2.783940792    -8.482679367   -19.363861084    -0.000424871
    -0.220669210    -8.241476059   -19.377862930    -0.000068301
     2.832562208    -8.265623093   -19.437118530    -0.000895463